1 0 0 1 0 0 1 0 0 0 1 1 1 1 
0 19 30 12 16 38 32 38 23 35 28 37 32 29 
19 0 33 5 27 36 27 4 15 14 31 22 24 38 
30 33 0 4 33 27 12 14 28 36 28 17 25 33 
12 5 4 0 31 38 28 13 14 33 4 37 16 38 
16 27 33 31 0 39 9 22 27 23 8 39 8 19 
38 36 27 38 39 0 5 32 34 33 36 10 8 14 
32 27 12 28 9 5 0 19 33 10 5 16 18 7 
38 4 14 13 22 32 19 0 24 16 4 12 33 25 
23 15 28 14 27 34 33 24 0 12 39 22 30 33 
35 14 36 33 23 33 10 16 12 0 34 7 38 6 
28 31 28 4 8 36 5 4 39 34 0 35 12 28 
37 22 17 37 39 10 16 12 22 7 35 0 21 9 
32 24 25 16 8 8 18 33 30 38 12 21 0 13 
29 38 33 38 19 14 7 25 33 6 28 9 13 0 
5 2
1P 4P 3B 7P 11P 8B 2B 9B 10B 14P 12P 6B 13P 5B = 125